Welcome to the CBC MILP Solver 
Version: Trunk
Build Date: Apr 16 2020 

Starting solution of the Linear programming relaxation problem using Primal Simplex

Using Python-MIP package version 1.8.1
Machines:  4 Jobs:  4
Order: 
Job  0 : machine 0 ( 10 ) machine 3 ( 1 ) machine 2 ( 6 ) machine 1 ( 7 ) 
Job  1 : machine 0 ( 1 ) machine 3 ( 7 ) machine 1 ( 5 ) machine 2 ( 8 ) 
Job  2 : machine 3 ( 9 ) machine 2 ( 3 ) machine 1 ( 7 ) machine 0 ( 1 ) 
Job  3 : machine 1 ( 7 ) machine 3 ( 3 ) machine 0 ( 9 ) machine 2 ( 10 ) 
K:  44
Job  0 , e: machine  0 ( 0 ) machine  1 ( 17 ) machine  2 ( 11 ) machine  3 ( 10 ) 
Job  1 , e: machine  0 ( 0 ) machine  1 ( 8 ) machine  2 ( 13 ) machine  3 ( 1 ) 
Job  2 , e: machine  0 ( 19 ) machine  1 ( 12 ) machine  2 ( 9 ) machine  3 ( 0 ) 
Job  3 , e: machine  0 ( 10 ) machine  1 ( 0 ) machine  2 ( 19 ) machine  3 ( 7 ) 
Job  0 , f: machine  0 ( 14 ) machine  1 ( 0 ) machine  2 ( 7 ) machine  3 ( 13 ) 
Job  1 , f: machine  0 ( 20 ) machine  1 ( 8 ) machine  2 ( 0 ) machine  3 ( 13 ) 
Job  2 , f: machine  0 ( 0 ) machine  1 ( 1 ) machine  2 ( 8 ) machine  3 ( 11 ) 
Job  3 , f: machine  0 ( 10 ) machine  1 ( 22 ) machine  2 ( 0 ) machine  3 ( 19 ) 
EST and LST:
Job: 0 Machine: 0 EST: 0 LST: 20
Job: 0 Machine: 1 EST: 17 LST: 37
Job: 0 Machine: 2 EST: 11 LST: 31
Job: 0 Machine: 3 EST: 10 LST: 30
Job: 1 Machine: 0 EST: 0 LST: 23
Job: 1 Machine: 1 EST: 8 LST: 31
Job: 1 Machine: 2 EST: 13 LST: 36
Job: 1 Machine: 3 EST: 1 LST: 24
Job: 2 Machine: 0 EST: 19 LST: 43
Job: 2 Machine: 1 EST: 12 LST: 36
Job: 2 Machine: 2 EST: 9 LST: 33
Job: 2 Machine: 3 EST: 0 LST: 24
Job: 3 Machine: 0 EST: 10 LST: 25
Job: 3 Machine: 1 EST: 0 LST: 15
Job: 3 Machine: 2 EST: 19 LST: 34
Job: 3 Machine: 3 EST: 7 LST: 22
Order:
Job: 0 Machine: 0 = 0 
Job: 0 Machine: 1 = 3 
Job: 0 Machine: 2 = 2 
Job: 0 Machine: 3 = 1 
Job: 1 Machine: 0 = 0 
Job: 1 Machine: 1 = 2 
Job: 1 Machine: 2 = 3 
Job: 1 Machine: 3 = 1 
Job: 2 Machine: 0 = 3 
Job: 2 Machine: 1 = 2 
Job: 2 Machine: 2 = 1 
Job: 2 Machine: 3 = 0 
Job: 3 Machine: 0 = 2 
Job: 3 Machine: 1 = 0 
Job: 3 Machine: 2 = 3 
Job: 3 Machine: 3 = 1 
Distances:
Job 0, Machine 0 -> Machine 3: distance 10
Job 0, Machine 0 -> Machine 2: distance 11
Job 0, Machine 0 -> Machine 1: distance 17
Job 0, Machine 3 -> Machine 2: distance 1
Job 0, Machine 3 -> Machine 1: distance 7
Job 0, Machine 2 -> Machine 1: distance 6
Job 1, Machine 0 -> Machine 3: distance 1
Job 1, Machine 0 -> Machine 1: distance 8
Job 1, Machine 0 -> Machine 2: distance 13
Job 1, Machine 3 -> Machine 1: distance 7
Job 1, Machine 3 -> Machine 2: distance 12
Job 1, Machine 1 -> Machine 2: distance 5
Job 2, Machine 3 -> Machine 2: distance 9
Job 2, Machine 3 -> Machine 1: distance 12
Job 2, Machine 3 -> Machine 0: distance 19
Job 2, Machine 2 -> Machine 1: distance 3
Job 2, Machine 2 -> Machine 0: distance 10
Job 2, Machine 1 -> Machine 0: distance 7
Job 3, Machine 1 -> Machine 3: distance 7
Job 3, Machine 1 -> Machine 0: distance 10
Job 3, Machine 1 -> Machine 2: distance 19
Job 3, Machine 3 -> Machine 0: distance 3
Job 3, Machine 3 -> Machine 2: distance 12
Job 3, Machine 0 -> Machine 2: distance 9
McCormic linearization
[(0, 1), (0, 0), (3, 0), (3, 1), (2, 1), (2, 0), (1, 0), (1, 1)]
obj:  0.5999999999999999
solutions:  1
+ x(0,0) + 0.09999999999999998x(1,0) 
C:  28.999999999999996
x(0,0) = 0.20	 x(0,1) = 19.00	 x(0,2) = 13.00	 x(0,3) = 10.20	 
x(1,0) = 8.00	 x(1,1) = 16.00	 x(1,2) = 21.00	 x(1,3) = 9.00	 
x(2,0) = 20.20	 x(2,1) = 13.20	 x(2,2) = 10.20	 x(2,3) = 1.20	 
x(3,0) = 10.00	 x(3,1) = 0.00	 x(3,2) = 19.00	 x(3,3) = 7.00	 
y(0,1,0) = 0.37	 y(1,0,0) = 0.63	 
y(0,2,0) = 0.48	 y(2,0,0) = 0.52	 
y(0,3,0) = 0.99	 y(3,0,0) = 0.01	 
y(1,2,0) = 0.30	 y(2,1,0) = 0.70	 
y(1,3,0) = 0.96	 y(3,1,0) = 0.04	 
y(2,3,0) = 0.00	 y(3,2,0) = 1.00	 
y(0,1,1) = 0.48	 y(1,0,1) = 0.52	 
y(0,2,1) = 0.05	 y(2,0,1) = 0.95	 
y(0,3,1) = 0.00	 y(3,0,1) = 1.00	 
y(1,2,1) = 0.12	 y(2,1,1) = 0.88	 
y(1,3,1) = 0.38	 y(3,1,1) = 0.62	 
y(2,3,1) = 0.00	 y(3,2,1) = 1.00	 
y(0,1,2) = 0.48	 y(1,0,2) = 0.52	 
y(0,2,2) = 0.44	 y(2,0,2) = 0.56	 
y(0,3,2) = 1.00	 y(3,0,2) = 0.00	 
y(1,2,2) = 0.00	 y(2,1,2) = 1.00	 
y(1,3,2) = 0.26	 y(3,1,2) = 0.74	 
y(2,3,2) = 0.74	 y(3,2,2) = 0.26	 
y(0,1,3) = 0.28	 y(1,0,3) = 0.72	 
y(0,2,3) = 0.00	 y(2,0,3) = 1.00	 
y(0,3,3) = 0.01	 y(3,0,3) = 0.99	 
y(1,2,3) = 0.04	 y(2,1,3) = 0.96	 
y(1,3,3) = 0.04	 y(3,1,3) = 0.96	 
y(2,3,3) = 0.35	 y(3,2,3) = 0.65	 
obj:  0.7899005756148617
solutions:  1
+ 0.006122448979591841x(1,3) + 0.10010465724751436x(3,3) + 0.014599686028257402x(2,3) + 0.0016221873364731265x(0,3) 
[(1, 2), (0, 1), (3, 2), (1, 3), (3, 3), (0, 2), (3, 1), (2, 1), (2, 3), (2, 2), (0, 3), (1, 1)]
cliques:  1 mip: 72
C:  30.41727092946555
x(0,0) = 1.00	 x(0,1) = 23.42	 x(0,2) = 17.42	 x(0,3) = 16.42	 
x(1,0) = -0.00	 x(1,1) = 8.00	 x(1,2) = 13.00	 x(1,3) = 1.00	 
x(2,0) = 29.42	 x(2,1) = 22.42	 x(2,2) = 19.42	 x(2,3) = 10.42	 
x(3,0) = 11.14	 x(3,1) = 0.00	 x(3,2) = 20.14	 x(3,3) = 8.14	 
y(0,1,0) = 0.00	 y(1,0,0) = 1.00	 
y(0,2,0) = 0.67	 y(2,0,0) = 0.33	 
y(0,3,0) = 0.99	 y(3,0,0) = 0.01	 
y(1,2,0) = 0.69	 y(2,1,0) = 0.31	 
y(1,3,0) = 0.59	 y(3,1,0) = 0.41	 
y(2,3,0) = 0.00	 y(3,2,0) = 1.00	 
y(0,1,1) = 0.11	 y(1,0,1) = 0.89	 
y(0,2,1) = 0.23	 y(2,0,1) = 0.77	 
y(0,3,1) = 0.00	 y(3,0,1) = 1.00	 
y(1,2,1) = 0.61	 y(2,1,1) = 0.39	 
y(1,3,1) = 0.04	 y(3,1,1) = 0.96	 
y(2,3,1) = 0.00	 y(3,2,1) = 1.00	 
y(0,1,2) = 0.11	 y(1,0,2) = 0.89	 
y(0,2,2) = 0.38	 y(2,0,2) = 0.62	 
y(0,3,2) = 0.73	 y(3,0,2) = 0.27	 
y(1,2,2) = 0.41	 y(2,1,2) = 0.59	 
y(1,3,2) = 0.97	 y(3,1,2) = 0.03	 
y(2,3,2) = 0.87	 y(3,2,2) = 0.13	 
y(0,1,3) = 0.00	 y(1,0,3) = 1.00	 
y(0,2,3) = 0.43	 y(2,0,3) = 0.57	 
y(0,3,3) = 0.26	 y(3,0,3) = 0.74	 
y(1,2,3) = 0.58	 y(2,1,3) = 0.42	 
y(1,3,3) = 0.99	 y(3,1,3) = 0.01	 
y(2,3,3) = 0.03	 y(3,2,3) = 0.97	 
obj:  0.9449301360535318
solutions:  1
+ 0.06229508196721313x(1,3) + 0.019672131147540982x(3,3) + 0.05901639344262295x(2,3) + 0.006557377049180323x(0,3) 
[(1, 3), (0, 0), (3, 3), (3, 0), (2, 0), (2, 3), (1, 0), (0, 3)]
cliques:  1 mip: 115
C:  31.290896927443484
x(0,0) = 0.93	 x(0,1) = 18.04	 x(0,2) = 11.93	 x(0,3) = 10.93	 
x(1,0) = 0.74	 x(1,1) = 8.74	 x(1,2) = 13.74	 x(1,3) = 1.74	 
x(2,0) = 30.29	 x(2,1) = 22.89	 x(2,2) = 19.89	 x(2,3) = 10.89	 
x(3,0) = 12.08	 x(3,1) = 1.74	 x(3,2) = 21.08	 x(3,3) = 9.02	 
y(0,1,0) = 0.03	 y(1,0,0) = 0.97	 
y(0,2,0) = 1.00	 y(2,0,0) = 0.00	 
y(0,3,0) = 0.99	 y(3,0,0) = 0.01	 
y(1,2,0) = 0.98	 y(2,1,0) = 0.02	 
y(1,3,0) = 0.96	 y(3,1,0) = 0.04	 
y(2,3,0) = 0.00	 y(3,2,0) = 1.00	 
y(0,1,1) = 0.01	 y(1,0,1) = 0.99	 
y(0,2,1) = 0.93	 y(2,0,1) = 0.07	 
y(0,3,1) = 0.00	 y(3,0,1) = 1.00	 
y(1,2,1) = 1.00	 y(2,1,1) = 0.00	 
y(1,3,1) = 0.00	 y(3,1,1) = 1.00	 
y(2,3,1) = 0.00	 y(3,2,1) = 1.00	 
y(0,1,2) = 0.83	 y(1,0,2) = 0.17	 
y(0,2,2) = 0.44	 y(2,0,2) = 0.56	 
y(0,3,2) = 1.00	 y(3,0,2) = 0.00	 
y(1,2,2) = 0.90	 y(2,1,2) = 0.10	 
y(1,3,2) = 0.97	 y(3,1,2) = 0.03	 
y(2,3,2) = 0.32	 y(3,2,2) = 0.68	 
y(0,1,3) = 0.00	 y(1,0,3) = 1.00	 
y(0,2,3) = 0.39	 y(2,0,3) = 0.61	 
y(0,3,3) = 0.07	 y(3,0,3) = 0.93	 
y(1,2,3) = 0.95	 y(2,1,3) = 0.05	 
y(1,3,3) = 1.00	 y(3,1,3) = 0.00	 
y(2,3,3) = 0.58	 y(3,2,3) = 0.42	 
obj:  0.8077713692841202
solutions:  1
+ 0.014411446806320453x(1,2) + 0.02264655926707499x(3,2) + 0.0020073086623089067x(1,3) + 0.010808585104740333x(0,2) 
[(1, 2), (3, 2), (1, 3), (3, 3), (2, 3), (2, 2), (0, 3), (0, 2)]
cliques:  1 mip: 121
C:  33.17140292746692
x(0,0) = 0.37	 x(0,1) = 26.17	 x(0,2) = 20.17	 x(0,3) = 10.37	 
x(1,0) = 6.26	 x(1,1) = 15.76	 x(1,2) = 20.76	 x(1,3) = 8.76	 
x(2,0) = 32.17	 x(2,1) = 22.11	 x(2,2) = 19.11	 x(2,3) = 10.11	 
x(3,0) = 11.54	 x(3,1) = 1.54	 x(3,2) = 20.54	 x(3,3) = 8.54	 
y(0,1,0) = 0.29	 y(1,0,0) = 0.71	 
y(0,2,0) = 0.99	 y(2,0,0) = 0.01	 
y(0,3,0) = 0.92	 y(3,0,0) = 0.08	 
y(1,2,0) = 0.81	 y(2,1,0) = 0.19	 
y(1,3,0) = 0.58	 y(3,1,0) = 0.42	 
y(2,3,0) = 0.00	 y(3,2,0) = 1.00	 
y(0,1,1) = 0.13	 y(1,0,1) = 0.87	 
y(0,2,1) = 0.65	 y(2,0,1) = 0.35	 
y(0,3,1) = 0.00	 y(3,0,1) = 1.00	 
y(1,2,1) = 1.00	 y(2,1,1) = 0.00	 
y(1,3,1) = 0.00	 y(3,1,1) = 1.00	 
y(2,3,1) = 0.00	 y(3,2,1) = 1.00	 
y(0,1,2) = 0.77	 y(1,0,2) = 0.23	 
y(0,2,2) = 0.09	 y(2,0,2) = 0.91	 
y(0,3,2) = 0.35	 y(3,0,2) = 0.65	 
y(1,2,2) = 0.09	 y(2,1,2) = 0.91	 
y(1,3,2) = 0.67	 y(3,1,2) = 0.33	 
y(2,3,2) = 0.77	 y(3,2,2) = 0.23	 
y(0,1,3) = 0.26	 y(1,0,3) = 0.74	 
y(0,2,3) = 0.71	 y(2,0,3) = 0.29	 
y(0,3,3) = 0.08	 y(3,0,3) = 0.92	 
y(1,2,3) = 0.53	 y(2,1,3) = 0.47	 
y(1,3,3) = 0.70	 y(3,1,3) = 0.30	 
y(2,3,3) = 0.06	 y(3,2,3) = 0.94	 
obj:  1.0
erro
[(1, 3), (0, 0), (3, 3), (3, 0), (2, 0), (2, 3), (1, 0), (0, 3)]
cliques:  0 mip: 143
C:  34.0
x(0,0) = 0.21	 x(0,1) = 27.00	 x(0,2) = 17.91	 x(0,3) = 10.21	 
x(1,0) = 7.89	 x(1,1) = 17.81	 x(1,2) = 23.91	 x(1,3) = 10.81	 
x(2,0) = 33.00	 x(2,1) = 23.82	 x(2,2) = 20.82	 x(2,3) = 11.82	 
x(3,0) = 10.44	 x(3,1) = 0.44	 x(3,2) = 19.44	 x(3,3) = 7.44	 
y(0,1,0) = 0.36	 y(1,0,0) = 0.64	 
y(0,2,0) = 0.99	 y(2,0,0) = 0.01	 
y(0,3,0) = 0.98	 y(3,0,0) = 0.02	 
y(1,2,0) = 0.79	 y(2,1,0) = 0.21	 
y(1,3,0) = 0.46	 y(3,1,0) = 0.54	 
y(2,3,0) = 0.00	 y(3,2,0) = 1.00	 
y(0,1,1) = 0.00	 y(1,0,1) = 1.00	 
y(0,2,1) = 0.64	 y(2,0,1) = 0.36	 
y(0,3,1) = 0.00	 y(3,0,1) = 1.00	 
y(1,2,1) = 1.00	 y(2,1,1) = 0.00	 
y(1,3,1) = 0.00	 y(3,1,1) = 1.00	 
y(2,3,1) = 0.00	 y(3,2,1) = 1.00	 
y(0,1,2) = 1.00	 y(1,0,2) = 0.00	 
y(0,2,2) = 0.34	 y(2,0,2) = 0.66	 
y(0,3,2) = 0.48	 y(3,0,2) = 0.52	 
y(1,2,2) = 0.00	 y(2,1,2) = 1.00	 
y(1,3,2) = 0.50	 y(3,1,2) = 0.50	 
y(2,3,2) = 0.61	 y(3,2,2) = 0.39	 
y(0,1,3) = 0.36	 y(1,0,3) = 0.64	 
y(0,2,3) = 0.79	 y(2,0,3) = 0.21	 
y(0,3,3) = 0.02	 y(3,0,3) = 0.98	 
y(1,2,3) = 0.49	 y(2,1,3) = 0.51	 
y(1,3,3) = 0.57	 y(3,1,3) = 0.43	 
y(2,3,3) = 0.33	 y(3,2,3) = 0.67	 
obj:  0.9537192401363502
solutions:  1
+ 0.09174311926605494x(0,0) + 0.08256880733944955x(3,0) + 0.00917431192660551x(1,0) 
[(1, 2), (0, 1), (3, 2), (0, 0), (3, 0), (0, 2), (3, 1), (2, 1), (2, 0), (2, 2), (1, 0), (1, 1)]
cliques:  1 mip: 96
C:  34.0
x(0,0) = 1.00	 x(0,1) = 27.00	 x(0,2) = 18.02	 x(0,3) = 11.00	 
x(1,0) = 0.00	 x(1,1) = 14.09	 x(1,2) = 20.65	 x(1,3) = 7.09	 
x(2,0) = 33.00	 x(2,1) = 22.51	 x(2,2) = 18.99	 x(2,3) = 9.99	 
x(3,0) = 12.79	 x(3,1) = 0.92	 x(3,2) = 21.79	 x(3,3) = 7.92	 
y(0,1,0) = 0.00	 y(1,0,0) = 1.00	 
y(0,2,0) = 0.98	 y(2,0,0) = 0.02	 
y(0,3,0) = 0.88	 y(3,0,0) = 0.12	 
y(1,2,0) = 0.85	 y(2,1,0) = 0.15	 
y(1,3,0) = 0.66	 y(3,1,0) = 0.34	 
y(2,3,0) = 0.00	 y(3,2,0) = 1.00	 
y(0,1,1) = 0.00	 y(1,0,1) = 1.00	 
y(0,2,1) = 0.42	 y(2,0,1) = 0.58	 
y(0,3,1) = 0.00	 y(3,0,1) = 1.00	 
y(1,2,1) = 1.00	 y(2,1,1) = 0.00	 
y(1,3,1) = 0.00	 y(3,1,1) = 1.00	 
y(2,3,1) = 0.00	 y(3,2,1) = 1.00	 
y(0,1,2) = 0.56	 y(1,0,2) = 0.44	 
y(0,2,2) = 0.16	 y(2,0,2) = 0.84	 
y(0,3,2) = 0.42	 y(3,0,2) = 0.58	 
y(1,2,2) = 0.06	 y(2,1,2) = 0.94	 
y(1,3,2) = 0.73	 y(3,1,2) = 0.27	 
y(2,3,2) = 0.88	 y(3,2,2) = 0.12	 
y(0,1,3) = 0.41	 y(1,0,3) = 0.59	 
y(0,2,3) = 0.58	 y(2,0,3) = 0.42	 
y(0,3,3) = 0.00	 y(3,0,3) = 1.00	 
y(1,2,3) = 0.55	 y(2,1,3) = 0.45	 
y(1,3,3) = 0.74	 y(3,1,3) = 0.26	 
y(2,3,3) = 0.50	 y(3,2,3) = 0.50	 
obj:  1.0
erro
[(0, 1), (1, 3), (3, 3), (3, 1), (2, 1), (2, 3), (0, 3), (1, 1)]
cliques:  0 mip: 82
C:  34.0
x(0,0) = 1.10	 x(0,1) = 27.00	 x(0,2) = 18.53	 x(0,3) = 11.10	 
x(1,0) = 0.10	 x(1,1) = 14.06	 x(1,2) = 19.06	 x(1,3) = 7.06	 
x(2,0) = 33.00	 x(2,1) = 22.06	 x(2,2) = 19.06	 x(2,3) = 8.73	 
x(3,0) = 13.56	 x(3,1) = 1.10	 x(3,2) = 22.56	 x(3,3) = 8.10	 
y(0,1,0) = 0.00	 y(1,0,0) = 1.00	 
y(0,2,0) = 0.98	 y(2,0,0) = 0.02	 
y(0,3,0) = 0.91	 y(3,0,0) = 0.09	 
y(1,2,0) = 0.88	 y(2,1,0) = 0.12	 
y(1,3,0) = 0.67	 y(3,1,0) = 0.33	 
y(2,3,0) = 0.00	 y(3,2,0) = 1.00	 
y(0,1,1) = 0.00	 y(1,0,1) = 1.00	 
y(0,2,1) = 0.34	 y(2,0,1) = 0.66	 
y(0,3,1) = 0.00	 y(3,0,1) = 1.00	 
y(1,2,1) = 1.00	 y(2,1,1) = 0.00	 
y(1,3,1) = 0.00	 y(3,1,1) = 1.00	 
y(2,3,1) = 0.00	 y(3,2,1) = 1.00	 
y(0,1,2) = 0.43	 y(1,0,2) = 0.57	 
y(0,2,2) = 0.14	 y(2,0,2) = 0.86	 
y(0,3,2) = 0.43	 y(3,0,2) = 0.57	 
y(1,2,2) = 0.14	 y(2,1,2) = 0.86	 
y(1,3,2) = 0.82	 y(3,1,2) = 0.18	 
y(2,3,2) = 0.91	 y(3,2,2) = 0.09	 
y(0,1,3) = 0.39	 y(1,0,3) = 0.61	 
y(0,2,3) = 0.42	 y(2,0,3) = 0.58	 
y(0,3,3) = 0.00	 y(3,0,3) = 1.00	 
y(1,2,3) = 0.49	 y(2,1,3) = 0.51	 
y(1,3,3) = 0.75	 y(3,1,3) = 0.25	 
y(2,3,3) = 0.63	 y(3,2,3) = 0.37	 
obj:  0.9999999999999996
erro
[(1, 3), (0, 0), (3, 3), (3, 0), (2, 0), (2, 3), (1, 0), (0, 3)]
cliques:  0 mip: 74
C:  34.3468258322859
x(0,0) = 8.11	 x(0,1) = 27.35	 x(0,2) = 21.35	 x(0,3) = 20.35	 
x(1,0) = 1.85	 x(1,1) = 16.66	 x(1,2) = 21.66	 x(1,3) = 9.66	 
x(2,0) = 30.91	 x(2,1) = 23.91	 x(2,2) = 20.91	 x(2,3) = 11.91	 
x(3,0) = 10.33	 x(3,1) = 0.33	 x(3,2) = 19.33	 x(3,3) = 7.33	 
y(0,1,0) = 0.46	 y(1,0,0) = 0.54	 
y(0,2,0) = 0.65	 y(2,0,0) = 0.35	 
y(0,3,0) = 0.61	 y(3,0,0) = 0.39	 
y(1,2,0) = 0.75	 y(2,1,0) = 0.25	 
y(1,3,0) = 0.51	 y(3,1,0) = 0.49	 
y(2,3,0) = 0.00	 y(3,2,0) = 1.00	 
y(0,1,1) = 0.02	 y(1,0,1) = 0.98	 
y(0,2,1) = 0.59	 y(2,0,1) = 0.41	 
y(0,3,1) = 0.00	 y(3,0,1) = 1.00	 
y(1,2,1) = 1.00	 y(2,1,1) = 0.00	 
y(1,3,1) = 0.00	 y(3,1,1) = 1.00	 
y(2,3,1) = 0.00	 y(3,2,1) = 1.00	 
y(0,1,2) = 0.65	 y(1,0,2) = 0.35	 
y(0,2,2) = 0.23	 y(2,0,2) = 0.77	 
y(0,3,2) = 0.40	 y(3,0,2) = 0.60	 
y(1,2,2) = 0.10	 y(2,1,2) = 0.90	 
y(1,3,2) = 0.37	 y(3,1,2) = 0.63	 
y(2,3,2) = 0.46	 y(3,2,2) = 0.54	 
y(0,1,3) = 0.61	 y(1,0,3) = 0.39	 
y(0,2,3) = 0.41	 y(2,0,3) = 0.59	 
y(0,3,3) = 0.00	 y(3,0,3) = 1.00	 
y(1,2,3) = 0.53	 y(2,1,3) = 0.47	 
y(1,3,3) = 0.61	 y(3,1,3) = 0.39	 
y(2,3,3) = 0.31	 y(3,2,3) = 0.69	 
obj:  0.9845762206849167
solutions:  1
+ 0.005025125628140704x(0,0) + 0.09045226130653262x(3,0) + 0.005025125628140718x(1,0) 
[(0, 0), (1, 3), (3, 3), (3, 0), (2, 0), (2, 3), (1, 0), (0, 3)]
cliques:  1 mip: 21
C:  34.34683904024406
x(0,0) = 9.98	 x(0,1) = 26.98	 x(0,2) = 20.98	 x(0,3) = 19.98	 
x(1,0) = 3.39	 x(1,1) = 16.92	 x(1,2) = 21.92	 x(1,3) = 9.92	 
x(2,0) = 33.35	 x(2,1) = 24.59	 x(2,2) = 21.59	 x(2,3) = 11.97	 
x(3,0) = 10.31	 x(3,1) = 0.31	 x(3,2) = 19.31	 x(3,3) = 7.31	 
y(0,1,0) = 0.45	 y(1,0,0) = 0.55	 
y(0,2,0) = 1.00	 y(2,0,0) = 0.00	 
y(0,3,0) = 0.30	 y(3,0,0) = 0.70	 
y(1,2,0) = 0.83	 y(2,1,0) = 0.17	 
y(1,3,0) = 0.50	 y(3,1,0) = 0.50	 
y(2,3,0) = 0.00	 y(3,2,0) = 1.00	 
y(0,1,1) = 0.00	 y(1,0,1) = 1.00	 
y(0,2,1) = 0.71	 y(2,0,1) = 0.29	 
y(0,3,1) = 0.00	 y(3,0,1) = 1.00	 
y(1,2,1) = 1.00	 y(2,1,1) = 0.00	 
y(1,3,1) = 0.00	 y(3,1,1) = 1.00	 
y(2,3,1) = 0.00	 y(3,2,1) = 1.00	 
y(0,1,2) = 0.65	 y(1,0,2) = 0.35	 
y(0,2,2) = 0.81	 y(2,0,2) = 0.19	 
y(0,3,2) = 0.43	 y(3,0,2) = 0.57	 
y(1,2,2) = 0.12	 y(2,1,2) = 0.88	 
y(1,3,2) = 0.37	 y(3,1,2) = 0.63	 
y(2,3,2) = 0.44	 y(3,2,2) = 0.56	 
y(0,1,3) = 0.63	 y(1,0,3) = 0.37	 
y(0,2,3) = 0.50	 y(2,0,3) = 0.50	 
y(0,3,3) = 0.06	 y(3,0,3) = 0.94	 
y(1,2,3) = 0.52	 y(2,1,3) = 0.48	 
y(1,3,3) = 0.60	 y(3,1,3) = 0.40	 
y(2,3,3) = 0.00	 y(3,2,3) = 1.00	 
obj:  0.9880132050049308
solutions:  1
+ 0.006306306306306303x(1,3) + 0.11081081081081068x(3,3) + 0.00810810810810816x(2,3) + 0.0009009009009009103x(0,3) 
[(1, 3), (0, 0), (3, 3), (3, 0), (2, 0), (2, 3), (1, 0), (0, 3)]
cliques:  1 mip: 24
C:  34.34712299701199
x(0,0) = 10.35	 x(0,1) = 27.35	 x(0,2) = 21.35	 x(0,3) = 20.35	 
x(1,0) = 1.45	 x(1,1) = 16.56	 x(1,2) = 21.56	 x(1,3) = 9.56	 
x(2,0) = 33.35	 x(2,1) = 24.50	 x(2,2) = 21.50	 x(2,3) = 12.50	 
x(3,0) = 10.40	 x(3,1) = 0.40	 x(3,2) = 19.40	 x(3,3) = 7.40	 
y(0,1,0) = 0.37	 y(1,0,0) = 0.63	 
y(0,2,0) = 1.00	 y(2,0,0) = 0.00	 
y(0,3,0) = 0.29	 y(3,0,0) = 0.71	 
y(1,2,0) = 0.84	 y(2,1,0) = 0.16	 
y(1,3,0) = 0.53	 y(3,1,0) = 0.47	 
y(2,3,0) = 0.00	 y(3,2,0) = 1.00	 
y(0,1,1) = 0.42	 y(1,0,1) = 0.58	 
y(0,2,1) = 0.69	 y(2,0,1) = 0.31	 
y(0,3,1) = 0.00	 y(3,0,1) = 1.00	 
y(1,2,1) = 1.00	 y(2,1,1) = 0.00	 
y(1,3,1) = 0.00	 y(3,1,1) = 1.00	 
y(2,3,1) = 0.00	 y(3,2,1) = 1.00	 
y(0,1,2) = 0.65	 y(1,0,2) = 0.35	 
y(0,2,2) = 0.66	 y(2,0,2) = 0.34	 
y(0,3,2) = 0.41	 y(3,0,2) = 0.59	 
y(1,2,2) = 0.14	 y(2,1,2) = 0.86	 
y(1,3,2) = 0.38	 y(3,1,2) = 0.62	 
y(2,3,2) = 0.44	 y(3,2,2) = 0.56	 
y(0,1,3) = 0.61	 y(1,0,3) = 0.39	 
y(0,2,3) = 0.64	 y(2,0,3) = 0.36	 
y(0,3,3) = 0.00	 y(3,0,3) = 1.00	 
y(1,2,3) = 0.56	 y(2,1,3) = 0.44	 
y(1,3,3) = 0.62	 y(3,1,3) = 0.38	 
y(2,3,3) = 0.04	 y(3,2,3) = 0.96	 
obj:  1.0000000000000002
erro
[(1, 3), (0, 0), (3, 3), (3, 0), (2, 0), (2, 3), (1, 0), (0, 3)]
cliques:  0 mip: 110
C:  35.00000000000001
x(0,0) = 5.15	 x(0,1) = 23.82	 x(0,2) = 17.82	 x(0,3) = 15.15	 
x(1,0) = 7.74	 x(1,1) = 15.74	 x(1,2) = 20.74	 x(1,3) = 8.74	 
x(2,0) = 34.00	 x(2,1) = 24.14	 x(2,2) = 21.14	 x(2,3) = 12.14	 
x(3,0) = 10.52	 x(3,1) = 0.52	 x(3,2) = 21.68	 x(3,3) = 7.52	 
y(0,1,0) = 0.75	 y(1,0,0) = 0.25	 
y(0,2,0) = 1.00	 y(2,0,0) = 0.00	 
y(0,3,0) = 0.60	 y(3,0,0) = 0.40	 
y(1,2,0) = 0.81	 y(2,1,0) = 0.19	 
y(1,3,0) = 0.56	 y(3,1,0) = 0.44	 
y(2,3,0) = 0.00	 y(3,2,0) = 1.00	 
y(0,1,1) = 0.29	 y(1,0,1) = 0.71	 
y(0,2,1) = 0.52	 y(2,0,1) = 0.48	 
y(0,3,1) = 0.00	 y(3,0,1) = 1.00	 
y(1,2,1) = 1.00	 y(2,1,1) = 0.00	 
y(1,3,1) = 0.00	 y(3,1,1) = 1.00	 
y(2,3,1) = 0.00	 y(3,2,1) = 1.00	 
y(0,1,2) = 0.38	 y(1,0,2) = 0.62	 
y(0,2,2) = 0.27	 y(2,0,2) = 0.73	 
y(0,3,2) = 0.77	 y(3,0,2) = 0.23	 
y(1,2,2) = 0.15	 y(2,1,2) = 0.85	 
y(1,3,2) = 0.72	 y(3,1,2) = 0.28	 
y(2,3,2) = 0.72	 y(3,2,2) = 0.28	 
y(0,1,3) = 0.75	 y(1,0,3) = 0.25	 
y(0,2,3) = 0.61	 y(2,0,3) = 0.39	 
y(0,3,3) = 0.00	 y(3,0,3) = 1.00	 
y(1,2,3) = 0.71	 y(2,1,3) = 0.29	 
y(1,3,3) = 0.46	 y(3,1,3) = 0.54	 
y(2,3,3) = 0.00	 y(3,2,3) = 1.00	 
obj:  0.9983413820663559
solutions:  1
+ 0.014930399640772335x(1,2) + 0.023462056578356545x(3,2) + 0.010103277952402331x(0,2) 
[(0, 1), (1, 2), (3, 2), (3, 1), (2, 1), (1, 1), (2, 2), (0, 2)]
cliques:  1 mip: 104
C:  34.99999999999999
x(0,0) = 1.00	 x(0,1) = 28.00	 x(0,2) = 22.00	 x(0,3) = 21.00	 
x(1,0) = -0.00	 x(1,1) = 13.18	 x(1,2) = 18.18	 x(1,3) = 2.44	 
x(2,0) = 34.00	 x(2,1) = 21.00	 x(2,2) = 17.89	 x(2,3) = 8.89	 
x(3,0) = 12.44	 x(3,1) = 2.44	 x(3,2) = 23.82	 x(3,3) = 9.44	 
y(0,1,0) = 0.63	 y(1,0,0) = 0.37	 
y(0,2,0) = 1.00	 y(2,0,0) = 0.00	 
y(0,3,0) = 0.93	 y(3,0,0) = 0.07	 
y(1,2,0) = 0.96	 y(2,1,0) = 0.04	 
y(1,3,0) = 0.90	 y(3,1,0) = 0.10	 
y(2,3,0) = 0.00	 y(3,2,0) = 1.00	 
y(0,1,1) = 0.11	 y(1,0,1) = 0.89	 
y(0,2,1) = -0.00	 y(2,0,1) = 1.00	 
y(0,3,1) = 0.00	 y(3,0,1) = 1.00	 
y(1,2,1) = 1.00	 y(2,1,1) = 0.00	 
y(1,3,1) = 0.00	 y(3,1,1) = 1.00	 
y(2,3,1) = 0.00	 y(3,2,1) = 1.00	 
y(0,1,2) = 0.50	 y(1,0,2) = 0.50	 
y(0,2,2) = 0.00	 y(2,0,2) = 1.00	 
y(0,3,2) = 0.67	 y(3,0,2) = 0.33	 
y(1,2,2) = 0.12	 y(2,1,2) = 0.88	 
y(1,3,2) = 0.91	 y(3,1,2) = 0.09	 
y(2,3,2) = 0.99	 y(3,2,2) = 0.01	 
y(0,1,3) = 0.22	 y(1,0,3) = 0.78	 
y(0,2,3) = 0.17	 y(2,0,3) = 0.83	 
y(0,3,3) = 0.00	 y(3,0,3) = 1.00	 
y(1,2,3) = 0.64	 y(2,1,3) = 0.36	 
y(1,3,3) = 1.00	 y(3,1,3) = 0.00	 
y(2,3,3) = 0.14	 y(3,2,3) = 0.86	 
obj:  0.9794595559733892
solutions:  1
+ 0.00305741278541214x(1,2) + 0.00859795944969927x(3,2) + 0.04549027418251272x(1,3) + 0.01949583179250545x(3,3) + 0.0018822809362340636x(0,2) + 0.043053295208449534x(2,3) 
[(1, 2), (0, 1), (3, 2), (1, 3), (3, 3), (0, 2), (3, 1), (2, 1), (2, 3), (2, 2), (0, 3), (1, 1)]
cliques:  1 mip: 86
C:  35.0
x(0,0) = 1.00	 x(0,1) = 27.52	 x(0,2) = 20.96	 x(0,3) = 17.28	 
x(1,0) = 0.00	 x(1,1) = 9.69	 x(1,2) = 14.81	 x(1,3) = 2.69	 
x(2,0) = 34.00	 x(2,1) = 21.14	 x(2,2) = 18.14	 x(2,3) = 9.14	 
x(3,0) = 12.69	 x(3,1) = 2.69	 x(3,2) = 24.49	 x(3,3) = 9.69	 
y(0,1,0) = 0.00	 y(1,0,0) = 1.00	 
y(0,2,0) = 1.00	 y(2,0,0) = 0.00	 
y(0,3,0) = 0.61	 y(3,0,0) = 0.39	 
y(1,2,0) = 0.96	 y(2,1,0) = 0.04	 
y(1,3,0) = 0.89	 y(3,1,0) = 0.11	 
y(2,3,0) = 0.00	 y(3,2,0) = 1.00	 
y(0,1,1) = 0.05	 y(1,0,1) = 0.95	 
y(0,2,1) = 0.02	 y(2,0,1) = 0.98	 
y(0,3,1) = 0.00	 y(3,0,1) = 1.00	 
y(1,2,1) = 1.00	 y(2,1,1) = 0.00	 
y(1,3,1) = 0.00	 y(3,1,1) = 1.00	 
y(2,3,1) = 0.00	 y(3,2,1) = 1.00	 
y(0,1,2) = 0.23	 y(1,0,2) = 0.77	 
y(0,2,2) = 0.11	 y(2,0,2) = 0.89	 
y(0,3,2) = 0.86	 y(3,0,2) = 0.14	 
y(1,2,2) = 0.73	 y(2,1,2) = 0.27	 
y(1,3,2) = 0.94	 y(3,1,2) = 0.06	 
y(2,3,2) = 0.97	 y(3,2,2) = 0.03	 
y(0,1,3) = 0.35	 y(1,0,3) = 0.65	 
y(0,2,3) = 0.34	 y(2,0,3) = 0.66	 
y(0,3,3) = 0.00	 y(3,0,3) = 1.00	 
y(1,2,3) = 0.86	 y(2,1,3) = 0.14	 
y(1,3,3) = 1.00	 y(3,1,3) = 0.00	 
y(2,3,3) = 0.24	 y(3,2,3) = 0.76	 
obj:  0.9999999999999996
erro
[(0, 0), (1, 3), (3, 3), (3, 0), (2, 0), (2, 3), (1, 0), (0, 3)]
cliques:  0 mip: 0
iterações: 13 cortes cliques encontrados: 9 mip: 1076 objective:  35.0
Coin0506I Presolve 157 (-171) rows, 90 (-71) columns and 490 (-260) elements
Clp1000I sum of infeasibilities 1.79124e-08 - average 1.14092e-10, 0 fixed columns
Coin0506I Presolve 157 (0) rows, 90 (0) columns and 490 (0) elements
Clp0029I End of values pass after 90 iterations
Clp0000I Optimal - objective value 29
Clp0000I Optimal - objective value 29
Coin0511I After Postsolve, objective 29, infeasibilities - dual 0 (0), primal 0 (0)
Clp0000I Optimal - objective value 29
Clp0000I Optimal - objective value 29
Clp0000I Optimal - objective value 29
Coin0511I After Postsolve, objective 29, infeasibilities - dual 0 (0), primal 0 (0)
Clp0032I Optimal objective 29 - 0 iterations time 0.012, Presolve 0.00, Idiot 0.01
Coin3009W Conflict graph built in 0.000 seconds, density: 0.071%
